Comps = {frontend0, frontend1, backend0, backend1, database0, database1};
mustComps = {frontend0, frontend1};
Flavs = {tiny, medium, large};
Nodes = {n1, n2, n3, n4};
CRes = {CPU, RAM, storage, bwIn, bwOut};
NRes = {ssl, fwall, encr, avail, latency};
Flav = [{medium, large}, {medium, large}, {tiny, medium, large}, {tiny, medium, large}, {large}, {large}];
Uses = array2d(CompFlavs, CompFlavs, [
	0,0,0,0,1,0,0,0,0,0,0,0,
	0,0,0,0,1,0,0,0,0,0,0,0,
	0,0,0,0,1,0,0,0,0,0,0,0,
	0,0,0,0,1,0,0,0,0,0,0,0,
	0,0,0,0,0,0,0,0,0,0,0,0,
	0,0,0,0,0,0,1,0,0,0,0,0,
	0,0,0,0,0,0,1,0,0,0,0,0,
	0,0,0,0,0,0,0,0,0,0,0,0,
	0,0,0,0,0,0,0,0,0,1,0,0,
	0,0,0,0,0,0,0,0,0,1,0,0,
	0,0,0,0,0,0,0,0,0,0,0,0,
	0,0,0,0,0,0,0,0,0,0,0,0,
]);
mayUse = array2d(Comps, CompFlavs, [
	0,0,0,0,0,0,0,0,0,0,0,0,
	0,0,0,0,0,0,0,0,0,0,0,0,
	1,1,1,1,0,1,1,0,0,0,0,0,
	0,0,0,0,0,0,0,0,1,1,0,0,
	0,0,0,0,0,0,0,0,0,0,0,0,
	0,0,0,0,0,0,0,0,0,0,0,0,
]);
MIN_RBOUNDS = 0;
MAX_RBOUNDS = 1000000;

worstBounds = [0, 0, 0, 0, 0, 0, 0, 0, 0, MAX_RBOUNDS];
bestBounds = [MAX_RBOUNDS - i | i in worstBounds];

comReq = array2d(CompFlavs, Res, [
  2, 391, 272, 302, 745, 1, 1, 0, 97, MAX_RBOUNDS,
  4, 247, 247, 431, 387, 1, 1, 0, 96, MAX_RBOUNDS,
  2, 244, 385, 495, 646, 0, 1, 1, 95, MAX_RBOUNDS,
  8, 333, 215, 435, 622, 1, 0, 1, 95, MAX_RBOUNDS,
  2, 458, 374, 539, 966, 1, 0, 1, 97, MAX_RBOUNDS,
  2, 449, 409, 261, 710, 1, 0, 1, 95, MAX_RBOUNDS,
  2, 410, 409, 477, 736, 1, 1, 1, 97, MAX_RBOUNDS,
  2, 371, 423, 834, 391, 1, 0, 1, 97, MAX_RBOUNDS,
  4, 248, 371, 258, 811, 1, 1, 0, 95, MAX_RBOUNDS,
  2, 496, 223, 626, 405, 0, 1, 1, 96, MAX_RBOUNDS,
  4, 490, 331, 882, 319, 1, 1, 0, 97, MAX_RBOUNDS,
  2, 252, 209, 726, 587, 1, 1, 1, 95, MAX_RBOUNDS,
]);

nodeCap = array2d(Nodes0, Res, [bestBounds[r] | r in Res] ++ [
  32, 92262, 677323, 24761, 20733, 1, 1, 1, 99, 0,
  32, 72651, 814287, 22296, 18441, 1, 1, 1, 98, 0,
  16, 74167, 81554, 17343, 18859, 1, 1, 1, 98, 0,
  16, 65846, 567499, 24444, 20753, 0, 1, 0, 98, 0,
]);

cost = array2d(Nodes0, Res, [
  0, 0, 0, 0, 0, 0, 0, 0, 0, 0, % no node
  13, 8, 25, 0, 0, 0, 0, 0, 0, 0,
  16, 8, 24, 0, 0, 0, 0, 0, 0, 0,
  18, 8, 22, 0, 0, 0, 0, 0, 0, 0,
  18, 8, 19, 0, 0, 0, 0, 0, 0, 0,
]);

carb = array2d(Nodes0, Res, [
  0, 0, 0, 0, 0, 0, 0, 0, 0, 0, % no node
  18, 44, 5, 0, 0, 0, 0, 0, 0, 0,
  23, 20, 26, 0, 0, 0, 0, 0, 0, 0,
  14, 40, 26, 0, 0, 0, 0, 0, 0, 0,
  3, 4, 14, 0, 0, 0, 0, 0, 0, 0,
]);

costBudget = 35824;
carbBudget = 33473;

depReq = array4d(Comps, Flavs, Comps, Res, [
  if c1 = frontend0 /\ c2 = backend1 /\ r = N(avail) then
    97
  elseif c1 = frontend1 /\ c2 = backend1 /\ r = N(avail) then
    96
  elseif c1 = frontend1 /\ c2 = backend0 /\ r = N(avail) then
    96
  elseif c1 = frontend0 /\ c2 = backend0 /\ r = N(avail) then
    95
  else
    worstBounds[r]
  endif | c1 in Comps, i in Flavs, c2 in Comps, r in Res]);

linkCap = array3d(Nodes0, Nodes0, Res, [
  if ni = 0 \/ nj = 0 then
    bestBounds[r]
  elseif ni = nj /\ r = N(avail) then
    nodeCap[ni,r]
  elseif {ni, nj} = {n1, n2} /\ r = N(avail) then
    98
  elseif {ni, nj} = {n2, n4} /\ r = N(avail) then
    98
  elseif {ni, nj} = {n1, n4} /\ r = N(avail) then
    98
  elseif {ni, nj} = {n2, n3} /\ r = N(avail) then
    98
  elseif {ni, nj} = {n1, n3} /\ r = N(avail) then
    98
  elseif {ni, nj} = {n3, n4} /\ r = N(avail) then
    98
  else
    worstBounds[r]
  endif | ni in Nodes0, nj in Nodes0, r in Res]);

imp = array2d(Comps, Flavs, [
  1, 3, 9,
  4, 5, 6,
  1, 2, 3,
  3, 8, 9,
  2, 5, 6,
  6, 7, 9,
]);

